p cnf 15 23
15 -13 3 0
-15 10 4 0
15 -10 -1 0
15 -9 3 0
15 8 -7 0
-14 -13 -8 0
14 6 -4 0
-13 12 -1 0
13 -3 -1 0
12 11 10 0
12 -11 -1 0
12 -8 1 0
12 -3 -1 0
-11 8 -6 0
10 -9 4 0
10 -7 -6 0
10 -6 -3 0
10 -4 1 0
-9 -8 7 0
-9 -8 6 0
9 3 1 0
-6 -4 1 0
-4 -2 1 0
